Iteraciones:   217 

Costo         Vehículos     Tiempo [seg]
 1491,462      8             1,374 
 1417,03       8             2,155 
 1371,366      8             2,874 
 1371,366      8             3,593 
 1371,366      8             4,296 
 1371,366      8             4,999 
 1371,366      8             5,718 
 1371,366      8             6,452 
 1353,472      8             7,171 
 1353,472      8             7,858 
 1350,806      8             8,577 
 1350,806      8             9,296 
 1350,806      8             9,983 
 1350,806      8             10,671 
 1350,806      8             11,359 
 1350,806      8             12,062 
 1350,806      8             12,749 
 1334,146      8             13,468 
 1334,146      8             14,187 
 1334,146      8             14,905 
 1334,146      8             15,656 
 1334,146      8             16,39 
 1334,146      8             17,077 
 1334,146      8             17,796 
 1334,146      8             18,499 
 1333,118      8             19,249 
 1333,118      8             19,984 
 1333,118      8             20,734 
 1333,118      8             21,421 
 1333,118      8             22,109 
 1333,118      8             22,859 
 1333,118      8             23,578 
 1333,118      8             24,328 
 1333,118      8             25,062 
 1333,118      8             25,765 
 1333,118      8             26,468 
 1333,118      8             27,187 
 1333,118      8             27,859 
 1333,118      8             28,656 
 1327,147      8             29,39 
 1326,937      8             30,109 
 1326,937      8             30,812 
 1326,937      8             31,515 
 1326,937      8             32,234 
 1326,937      8             32,953 
 1326,937      8             33,672 
 1326,937      8             34,344 
 1326,937      8             35,094 
 1326,937      8             35,812 
 1326,937      8             36,625 
 1326,937      8             37,344 
 1326,937      8             38,047 
 1326,937      8             38,781 
 1326,937      8             39,5 
 1307,283      8             40,266 
 1307,283      8             41,016 
 1307,283      8             41,719 
 1307,283      8             42,453 
 1307,283      8             43,172 
 1307,283      8             43,86 
 1307,283      8             44,578 
 1307,283      8             45,266 
 1307,283      8             45,953 
 1307,283      8             46,688 
 1307,283      8             47,407 
 1307,283      8             48,094 
 1307,283      8             48,797 
 1307,283      8             49,532 
 1307,283      8             50,282 
 1307,283      8             50,969 
 1307,283      8             51,688 
 1307,283      8             52,391 
 1307,283      8             53,094 
 1254,283      8             53,845 
 1254,283      8             54,579 
 1254,283      8             55,282 
 1254,283      8             55,985 
 1254,283      8             56,689 
 1254,283      8             57,376 
 1254,283      8             58,095 
 1254,283      8             58,829 
 1254,283      8             59,517 
 1254,283      8             60,236 
 1254,283      8             60,954 
 1254,283      8             61,673 
 1254,283      8             62,392 
 1254,283      8             63,111 
 1254,283      8             63,783 
 1254,283      8             64,502 
 1254,283      8             65,236 
 1254,283      8             65,939 
 1254,283      8             66,642 
 1254,283      8             67,346 
 1254,283      8             68,033 
 1254,283      8             68,752 
 1254,283      8             69,455 
 1254,283      8             70,158 
 1254,283      8             70,908 
 1254,283      8             71,596 
 1254,283      8             72,299 
 1254,283      8             73,018 
 1254,283      8             73,705 
 1254,283      8             74,424 
 1254,283      8             75,112 
 1254,283      8             75,831 
 1254,283      8             76,518 
 1254,283      8             77,221 
 1254,283      8             77,925 
 1254,283      8             78,643 
 1254,283      8             79,362 
 1254,283      8             80,081 
 1254,283      8             80,8 
 1254,283      8             81,519 
 1254,283      8             82,206 
 1254,283      8             82,956 
 1254,283      8             83,628 
 1242,956      8             84,316 
 1242,956      8             85,003 
 1242,956      8             85,706 
 1242,956      8             86,41 
 1242,956      8             87,113 
 1242,956      8             87,832 
 1242,956      8             88,55 
 1242,956      8             89,222 
 1242,956      8             89,957 
 1242,956      8             90,754 
 1242,956      8             91,457 
 1242,956      8             92,16 
 1242,956      8             92,879 
 1242,956      8             93,582 
 1242,956      8             94,301 
 1242,956      8             94,988 
 1242,956      8             95,723 
 1242,956      8             96,41 
 1242,956      8             97,098 
 1242,956      8             97,832 
 1242,956      8             98,535 
 1242,956      8             99,254 
 1242,956      8             99,957 
 1242,956      8             100,708 
 1242,956      8             101,458 
 1242,956      8             102,161 
 1242,956      8             102,895 
 1242,956      8             103,598 
 1242,956      8             104,317 
 1242,956      8             105,005 
 1242,956      8             105,724 
 1242,956      8             106,474 
 1242,956      8             107,161 
 1242,956      8             107,88 
 1242,956      8             108,599 
 1242,956      8             109,318 
 1242,956      8             110,052 
 1242,956      8             110,74 
 1242,956      8             111,458 
 1242,956      8             112,193 
 1242,956      8             112,943 
 1242,956      8             113,662 
 1242,956      8             114,349 
 1242,956      8             115,068 
 1242,956      8             115,802 
 1242,956      8             116,537 
 1242,956      8             117,24 
 1242,956      8             117,943 
 1242,956      8             118,662 
 1242,956      8             119,412 
 1242,956      8             120,1 
 1242,956      8             120,818 
 1242,956      8             121,522 
 1242,956      8             122,287 
 1242,956      8             123,006 
 1242,956      8             123,741 
 1242,956      8             124,459 
 1242,956      8             125,147 
 1242,956      8             125,881 
 1242,956      8             126,616 
 1242,956      8             127,335 
 1242,956      8             128,038 
 1242,956      8             128,741 
 1242,956      8             129,444 
 1242,956      8             130,163 
 1242,956      8             130,85 
 1242,956      8             131,554 
 1242,956      8             132,241 
 1242,956      8             132,96 
 1242,956      8             133,648 
 1242,956      8             134,319 
 1242,956      8             135,07 
 1242,956      8             135,788 
 1242,956      8             136,476 
 1242,956      8             137,179 
 1242,956      8             137,898 
 1242,956      8             138,601 
 1242,956      8             139,304 
 1242,956      8             140,039 
 1242,956      8             140,742 
 1242,956      8             141,508 
 1242,956      8             142,226 
 1242,956      8             142,992 
 1242,956      8             143,726 
 1242,956      8             144,414 
 1242,956      8             145,133 
 1242,956      8             145,867 
 1242,956      8             146,555 
 1242,956      8             147,274 
 1242,956      8             148,024 
 1242,956      8             148,742 
 1242,956      8             149,43 
 1242,956      8             150,149 
 1242,956      8             150,836 
 1242,956      8             151,555 
 1242,956      8             152,258 
 1242,956      8             152,977 
 1242,956      8             153,743 
 1242,956      8             154,446 
 1242,956      8             155,165 
 1242,956      8             155,915 
